NAME: random-32-15902
TYPE: TSP
COMMENT: size=32 seed=15902
DIMENSION: 66
EDGE_WEIGHT_TYPE: EUC_2D
NODE_COORD_SECTION
+0 914 721
-0 914 721
+1 476 137
-1 732 591
+2 652 157
-2 474 257
+3 326 681
-3 324 25
+4 170 624
-4 921 910
+5 520 551
-5 363 249
+6 735 353
-6 384 250
+7 127 120
-7 169 412
+8 893 996
-8 485 273
+9 238 282
-9 185 119
+10 818 416
-10 809 659
+11 550 705
-11 188 86
+12 596 481
-12 266 394
+13 309 451
-13 225 371
+14 656 514
-14 734 445
+15 149 498
-15 328 417
+16 719 221
-16 150 42
+17 719 282
-17 382 986
+18 88 169
-18 902 133
+19 765 460
-19 827 629
+20 269 317
-20 314 193
+21 852 420
-21 281 263
+22 31 686
-22 500 409
+23 603 750
-23 151 88
+24 688 467
-24 622 453
+25 934 414
-25 793 611
+26 306 686
-26 581 419
+27 982 286
-27 94 709
+28 744 742
-28 178 466
+29 704 97
-29 981 746
+30 958 612
-30 379 780
+31 21 447
-31 568 755
+32 640 21
-32 396 487
PRECEDENCE_SECTION
+0 -0
+1 -1
+2 -2
+3 -3
+4 -4
+5 -5
+6 -6
+7 -7
+8 -8
+9 -9
+10 -10
+11 -11
+12 -12
+13 -13
+14 -14
+15 -15
+16 -16
+17 -17
+18 -18
+19 -19
+20 -20
+21 -21
+22 -22
+23 -23
+24 -24
+25 -25
+26 -26
+27 -27
+28 -28
+29 -29
+30 -30
+31 -31
+32 -32
EOF
